c LRAT-TRIM Version 0.2.1-dev trims LRAT proofs
c Copyright (c) 2023-2025 A. Biere, F. Pollitt, Univ. Freiburg
c reading CNF and LRAT files
c backward checking trimmed clauses after trimming proof
c reading CNF from 'D:\Projects\carrollian\data\evidence\ss_sat\benchmarks\scaled\php_4_3.cnf'
c found 'p cnf 12 22' header
c parsed CNF with 22 added clauses
c parsing original CNF took 0.00 seconds and needed 0 MB memory
c reading proof from 'D:\Projects\carrollian\data\evidence\ss_sat\proofs\scaled_cadical_lrat\php_4_3.cadical.lrat'
c parsed original proof with 48 added and 43 deleted clauses
c parsing original proof took 0.00 seconds and needed 0 MB memory
c trimmed 22 original clauses in CNF to 22 clauses 100%
c trimmed 48 added clauses in original proof to 44 clauses 92%
c trimming proof took 0.00 seconds
c backward checking proof took 0.00 seconds
s VERIFIED
c checked 44 clauses 0 per second
c resolved 133 clauses 3.02 per checked clause
c assigned 193 literals 4.39 per checked clause
c maximum memory usage of 0 MB
c total time of 0.00 seconds
